language Essence 1.3

letting bot_end be [1037, 295, 961, 29, 35, 777; int(1..6)]
letting bot_start be [364, 940, 414, 1161, 898, 554; int(1..6)]
letting buffer_col be 2
letting buffer_row be 2
letting corridor_size be 1
letting n_shelves_col be 11
letting n_shelves_row be 16
letting shelf_col_size be 2
letting shelf_row_size be 1
